DIMACS2
20 156 133 136 92 0 77 155 100 153 108 103 132 120 82 90 102 140 65 105 150
p edge 160 660
e 0 63 29.0
e 0 16 17.0
e 0 113 6.0
e 0 65 2.0
e 1 17 2.0
e 1 125 2.0
e 1 126 1.0
e 1 146 1.0
e 2 83 1.0
e 2 73 1.0
e 2 3 1.0
e 2 87 1.0
e 3 157 2.0
e 3 22 1.0
e 3 65 42.0
e 3 142 1.0
e 4 78 1.0
e 4 143 1.0
e 4 72 1.0
e 4 79 1.0
e 5 149 1.0
e 5 147 1.0
e 5 45 1.0
e 5 129 1.0
e 6 12 1.0
e 6 36 2.0
e 6 93 1.0
e 6 118 1.0
e 7 57 1.0
e 7 100 32.0
e 7 14 1.0
e 7 119 1.0
e 8 133 27.0
e 8 116 2.0
e 8 19 1.0
e 8 83 1.0
e 9 117 1.0
e 9 3 2.0
e 9 125 1.0
e 9 149 1.0
e 10 30 1.0
e 10 99 1.0
e 10 92 49.0
e 10 101 1.0
e 11 137 1.0
e 11 44 1.0
e 11 106 1.0
e 11 80 1.0
e 12 64 1.0
e 12 78 1.0
e 12 107 1.0
e 12 114 1.0
e 13 140 28.0
e 13 49 1.0
e 13 106 1.0
e 13 63 1.0
e 14 142 1.0
e 14 60 1.0
e 14 6 1.0
e 14 51 1.0
e 15 81 2.0
e 15 60 1.0
e 15 26 1.0
e 15 58 1.0
e 16 68 1.0
e 16 88 1.0
e 16 153 19.0
e 16 85 1.0
e 17 122 2.0
e 17 18 1.0
e 17 42 2.0
e 17 53 1.0
e 18 138 2.0
e 18 131 2.0
e 18 5 1.0
e 18 41 1.0
e 19 37 1.0
e 19 34 1.0
e 19 70 1.0
e 19 114 3.0
e 20 17 2.0
e 20 61 2.0
e 20 107 1.0
e 20 81 1.0
e 21 19 2.0
e 21 1 1.0
e 21 11 1.0
e 21 44 1.0
e 22 72 1.0
e 22 67 1.0
e 22 49 2.0
e 22 98 1.0
e 23 134 1.0
e 23 47 2.0
e 23 0 26.0
e 23 61 1.0
e 24 75 1.0
e 24 8 1.0
e 24 50 5.0
e 24 158 1.0
e 25 50 4.0
e 25 80 1.0
e 25 86 2.0
e 25 10 1.0
e 26 98 1.0
e 26 44 2.0
e 26 19 1.0
e 26 99 1.0
e 27 78 1.0
e 27 95 1.0
e 27 48 1.0
e 27 126 1.0
e 28 85 1.0
e 28 86 1.0
e 28 60 1.0
e 28 50 1.0
e 29 67 1.0
e 29 43 1.0
e 29 90 30.0
e 29 36 2.0
e 30 149 1.0
e 30 78 1.0
e 30 13 1.0
e 30 89 2.0
e 31 44 2.0
e 31 112 1.0
e 31 83 1.0
e 31 107 1.0
e 32 130 2.0
e 32 93 1.0
e 32 83 1.0
e 32 7 1.0
e 33 74 1.0
e 33 35 3.0
e 33 40 1.0
e 33 154 1.0
e 34 83 1.0
e 34 102 8.0
e 34 150 20.0
e 34 33 1.0
e 35 108 17.0
e 35 93 2.0
e 35 25 1.0
e 35 45 1.0
e 36 112 1.0
e 36 146 1.0
e 36 106 3.0
e 36 35 2.0
e 37 106 1.0
e 37 148 1.0
e 37 53 1.0
e 37 136 21.0
e 38 37 2.0
e 38 57 1.0
e 38 67 1.0
e 38 154 1.0
e 39 141 1.0
e 39 132 38.0
e 39 71 2.0
e 39 79 3.0
e 40 125 2.0
e 40 16 1.0
e 40 12 1.0
e 40 59 1.0
e 41 158 1.0
e 41 61 1.0
e 41 134 1.0
e 41 145 1.0
e 42 90 49.0
e 42 8 1.0
e 42 27 1.0
e 42 80 1.0
e 43 114 1.0
e 43 70 1.0
e 43 113 1.0
e 43 109 2.0
e 44 46 2.0
e 44 101 1.0
e 44 18 3.0
e 45 12 2.0
e 45 117 2.0
e 45 58 3.0
e 45 103 17.0
e 46 6 1.0
e 46 158 1.0
e 46 99 2.0
e 46 144 1.0
e 47 85 2.0
e 47 35 2.0
e 47 5 1.0
e 47 95 1.0
e 48 76 1.0
e 48 28 1.0
e 48 33 1.0
e 48 39 1.0
e 49 56 1.0
e 49 25 1.0
e 49 3 1.0
e 49 71 1.0
e 50 101 3.0
e 50 144 1.0
e 50 132 4.0
e 50 12 6.0
e 51 101 1.0
e 51 139 1.0
e 51 36 1.0
e 51 28 1.0
e 52 53 1.0
e 52 80 1.0
e 52 33 1.0
e 52 16 1.0
e 53 28 1.0
e 53 3 1.0
e 53 48 1.0
e 53 146 1.0
e 54 76 1.0
e 54 106 2.0
e 54 137 2.0
e 54 29 1.0
e 55 80 1.0
e 55 67 1.0
e 55 118 1.0
e 55 16 1.0
e 56 12 1.0
e 56 120 42.0
e 56 19 1.0
e 56 116 1.0
e 57 67 1.0
e 57 34 1.0
e 57 136 1.0
e 57 151 1.0
e 58 1 1.0
e 58 61 1.0
e 58 99 1.0
e 59 61 1.0
e 59 111 1.0
e 59 76 1.0
e 59 122 1.0
e 60 93 1.0
e 60 106 1.0
e 60 87 1.0
e 61 129 2.0
e 61 10 1.0
e 61 31 2.0
e 61 145 3.0
e 62 58 1.0
e 62 13 1.0
e 62 138 1.0
e 62 157 1.0
e 63 107 1.0
e 63 145 1.0
e 63 46 1.0
e 63 64 2.0
e 64 158 1.0
e 64 2 2.0
e 64 147 1.0
e 65 131 18.0
e 65 63 38.0
e 65 7 32.0
e 65 110 1.0
e 65 77 5.0
e 65 82 5.0
e 65 108 19.0
e 66 63 1.0
e 66 92 35.0
e 66 156 3.0
e 66 158 1.0
e 67 106 2.0
e 67 119 1.0
e 67 121 1.0
e 67 138 1.0
e 68 63 1.0
e 68 75 1.0
e 68 123 1.0
e 68 66 1.0
e 69 128 1.0
e 69 44 1.0
e 69 15 1.0
e 69 14 1.0
e 70 147 1.0
e 70 138 1.0
e 70 155 33.0
e 70 104 1.0
e 71 55 2.0
e 71 86 2.0
e 71 43 1.0
e 71 156 34.0
e 72 56 1.0
e 72 69 1.0
e 72 62 1.0
e 72 138 2.0
e 73 25 1.0
e 73 52 1.0
e 73 67 2.0
e 73 4 1.0
e 74 130 1.0
e 74 37 2.0
e 74 56 1.0
e 74 112 1.0
e 75 6 1.0
e 75 62 1.0
e 75 23 2.0
e 75 116 3.0
e 76 24 1.0
e 76 110 1.0
e 76 27 1.0
e 76 74 3.0
e 77 43 16.0
e 77 60 36.0
e 77 21 11.0
e 77 151 14.0
e 77 82 26.0
e 77 92 22.0
e 77 100 35.0
e 78 29 2.0
e 78 143 1.0
e 78 86 1.0
e 78 71 1.0
e 79 0 47.0
e 79 44 1.0
e 79 53 1.0
e 79 117 1.0
e 80 145 1.0
e 80 45 2.0
e 80 140 1.0
e 80 144 1.0
e 81 152 1.0
e 81 99 1.0
e 81 42 2.0
e 81 55 1.0
e 82 93 35.0
e 82 141 34.0
e 82 49 36.0
e 82 90 28.0
e 82 100 19.0
e 82 120 6.0
e 83 28 1.0
e 83 36 1.0
e 83 80 1.0
e 84 63 1.0
e 84 79 1.0
e 84 119 1.0
e 84 72 1.0
e 85 116 1.0
e 85 59 2.0
e 85 0 49.0
e 85 42 1.0
e 86 117 1.0
e 86 6 1.0
e 86 7 1.0
e 86 135 1.0
e 87 11 1.0
e 87 126 1.0
e 87 102 38.0
e 87 117 1.0
e 88 9 1.0
e 88 134 1.0
e 88 34 1.0
e 88 142 2.0
e 89 26 1.0
e 89 132 7.0
e 89 131 1.0
e 89 138 2.0
e 90 92 46.0
e 90 77 31.0
e 90 104 39.0
e 90 131 32.0
e 90 140 45.0
e 91 146 2.0
e 91 104 1.0
e 91 32 1.0
e 91 157 2.0
e 92 54 5.0
e 92 112 29.0
e 92 79 24.0
e 92 110 7.0
e 93 29 1.0
e 93 107 1.0
e 93 19 2.0
e 93 53 2.0
e 94 64 1.0
e 94 113 1.0
e 94 68 1.0
e 94 2 1.0
e 95 149 1.0
e 95 38 2.0
e 95 58 1.0
e 95 3 1.0
e 96 86 1.0
e 96 29 1.0
e 96 122 2.0
e 96 117 3.0
e 97 6 1.0
e 97 14 1.0
e 97 86 2.0
e 97 135 3.0
e 98 91 2.0
e 98 114 1.0
e 98 112 1.0
e 98 101 1.0
e 99 28 1.0
e 99 154 1.0
e 99 76 2.0
e 99 100 47.0
e 100 55 20.0
e 100 3 33.0
e 100 57 33.0
e 100 120 19.0
e 101 121 1.0
e 101 19 2.0
e 101 22 1.0
e 101 137 1.0
e 102 0 31.0
e 102 56 45.0
e 102 147 14.0
e 102 94 20.0
e 102 100 25.0
e 102 82 34.0
e 103 136 34.0
e 103 38 12.0
e 103 44 25.0
e 103 42 10.0
e 103 132 28.0
e 103 105 45.0
e 103 65 13.0
e 103 77 20.0
e 104 149 1.0
e 104 22 2.0
e 104 19 1.0
e 105 108 35.0
e 105 33 22.0
e 105 112 28.0
e 105 79 9.0
e 105 90 7.0
e 105 133 47.0
e 105 136 10.0
e 106 2 1.0
e 106 111 1.0
e 106 23 1.0
e 106 24 1.0
e 107 47 1.0
e 107 129 1.0
e 107 119 1.0
e 107 5 1.0
e 108 127 27.0
e 108 30 8.0
e 108 67 40.0
e 108 80 32.0
e 108 103 12.0
e 108 102 12.0
e 109 134 2.0
e 109 14 1.0
e 109 69 2.0
e 109 74 1.0
e 110 71 1.0
e 110 143 1.0
e 110 23 1.0
e 110 123 1.0
e 111 144 1.0
e 111 84 3.0
e 111 93 2.0
e 111 133 28.0
e 112 120 8.0
e 112 79 1.0
e 112 8 1.0
e 112 93 1.0
e 113 81 1.0
e 113 37 1.0
e 113 109 1.0
e 113 98 1.0
e 114 142 1.0
e 114 105 39.0
e 114 139 1.0
e 114 81 1.0
e 115 34 1.0
e 115 44 1.0
e 115 33 1.0
e 115 28 1.0
e 116 15 1.0
e 116 100 8.0
e 116 66 1.0
e 116 110 1.0
e 117 59 1.0
e 117 98 1.0
e 117 130 1.0
e 117 112 1.0
e 118 61 1.0
e 118 148 1.0
e 118 146 1.0
e 118 35 1.0
e 119 72 1.0
e 119 17 2.0
e 119 22 1.0
e 119 64 1.0
e 120 113 46.0
e 120 43 25.0
e 120 88 28.0
e 120 130 41.0
e 121 122 1.0
e 121 52 1.0
e 121 129 2.0
e 121 37 1.0
e 122 131 1.0
e 122 53 1.0
e 122 87 1.0
e 122 141 2.0
e 123 19 2.0
e 123 12 1.0
e 123 89 3.0
e 123 118 1.0
e 124 88 1.0
e 124 8 1.0
e 124 71 1.0
e 124 92 18.0
e 125 47 2.0
e 125 133 5.0
e 125 72 1.0
e 125 70 1.0
e 126 95 1.0
e 126 80 2.0
e 126 120 31.0
e 126 74 2.0
e 127 20 1.0
e 127 74 2.0
e 127 102 1.0
e 127 72 1.0
e 128 85 2.0
e 128 70 2.0
e 128 97 1.0
e 128 127 1.0
e 129 47 1.0
e 129 111 1.0
e 129 11 3.0
e 130 134 2.0
e 130 35 1.0
e 130 55 1.0
e 131 41 1.0
e 131 39 1.0
e 131 58 1.0
e 131 11 1.0
e 132 127 12.0
e 132 19 7.0
e 132 87 18.0
e 132 139 12.0
e 133 61 21.0
e 133 90 37.0
e 133 109 8.0
e 133 80 41.0
e 133 108 19.0
e 134 155 27.0
e 134 156 7.0
e 134 57 1.0
e 134 22 1.0
e 135 41 1.0
e 135 109 2.0
e 135 132 18.0
e 135 48 2.0
e 136 20 4.0
e 136 91 5.0
e 136 9 39.0
e 136 81 34.0
e 136 140 6.0
e 137 23 1.0
e 137 91 1.0
e 137 44 1.0
e 137 146 1.0
e 138 92 34.0
e 138 88 1.0
e 138 157 2.0
e 138 127 1.0
e 139 69 1.0
e 139 123 1.0
e 139 73 1.0
e 139 98 1.0
e 140 74 28.0
e 140 86 36.0
e 140 147 47.0
e 140 18 40.0
e 140 105 24.0
e 141 15 1.0
e 141 116 1.0
e 141 68 1.0
e 141 29 1.0
e 142 59 1.0
e 142 34 1.0
e 142 121 1.0
e 142 35 1.0
e 143 69 1.0
e 143 41 1.0
e 143 10 1.0
e 143 13 1.0
e 144 70 2.0
e 144 59 1.0
e 144 53 1.0
e 144 118 1.0
e 145 132 5.0
e 145 76 1.0
e 145 5 1.0
e 145 150 29.0
e 146 21 1.0
e 146 142 1.0
e 146 153 46.0
e 146 130 3.0
e 147 81 1.0
e 147 19 2.0
e 147 130 2.0
e 147 119 1.0
e 148 4 1.0
e 148 29 2.0
e 148 121 1.0
e 149 54 2.0
e 149 29 2.0
e 149 153 44.0
e 149 82 1.0
e 150 114 42.0
e 150 64 6.0
e 150 17 12.0
e 150 96 20.0
e 150 133 14.0
e 150 136 25.0
e 151 99 1.0
e 151 20 1.0
e 151 150 28.0
e 151 154 1.0
e 152 93 1.0
e 152 121 1.0
e 152 86 1.0
e 152 23 2.0
e 153 55 44.0
e 153 113 44.0
e 153 0 19.0
e 153 140 8.0
e 153 150 34.0
e 153 155 35.0
e 154 75 1.0
e 154 119 1.0
e 154 12 1.0
e 154 101 1.0
e 155 87 42.0
e 155 79 44.0
e 155 131 40.0
e 155 127 38.0
e 155 156 21.0
e 155 0 35.0
e 156 33 36.0
e 156 36 25.0
e 156 106 3.0
e 156 153 11.0
e 157 121 2.0
e 157 110 2.0
e 157 80 1.0
e 157 120 47.0
e 158 151 1.0
e 158 10 2.0
e 158 95 1.0
e 158 143 1.0
e 159 4 1.0
e 159 5 1.0
e 159 50 1.0
e 159 97 1.0
